(set-info :source |printed by MathSAT|)
(declare-fun |__ADDRESS_OF_main::auStack_30@| () (_ BitVec 32))
(declare-fun *int@1 () (Array (_ BitVec 32) (_ BitVec 32)))
(declare-fun |__ADDRESS_OF_main::a@| () (_ BitVec 32))
(declare-fun |main::local_14@3| () (_ BitVec 32))
(assert (let ((.def_61 (= |main::local_14@3| (_ bv5 32))))(let ((.def_62 (not .def_61)))(let ((.def_47 (bvadd (_ bv16 32) |__ADDRESS_OF_main::a@|)))(let ((.def_54 (select *int@1 .def_47)))(let ((.def_55 (= .def_54 (_ bv0 32))))(let ((.def_52 (= |main::local_14@3| (_ bv0 32))))(let ((.def_29 (bvurem |__ADDRESS_OF_main::a@| (_ bv4 32))))(let ((.def_30 (= .def_29 (_ bv0 32))))(let ((.def_16 (bvadd (_ bv8 32) |__ADDRESS_OF_main::auStack_30@|)))(let ((.def_28 (bvslt .def_16 |__ADDRESS_OF_main::a@|)))(let ((.def_48 (and .def_28 .def_30)))(let ((.def_32 (bvadd (_ bv20 32) |__ADDRESS_OF_main::a@|)))(let ((.def_33 (bvslt (_ bv0 32) .def_32)))(let ((.def_49 (and .def_33 .def_48)))(let ((.def_13 (bvurem |__ADDRESS_OF_main::auStack_30@| (_ bv4 32))))(let ((.def_14 (= .def_13 (_ bv0 32))))(let ((.def_11 (bvslt (_ bv0 32) |__ADDRESS_OF_main::auStack_30@|)))(let ((.def_24 (and .def_11 .def_14)))(let ((.def_17 (bvslt (_ bv0 32) .def_16)))(let ((.def_25 (and .def_17 .def_24)))(let ((.def_50 (and .def_25 .def_49)))(let ((.def_53 (and .def_50 .def_52)))(let ((.def_59 (and .def_53 .def_55)))(let ((.def_64 (and .def_59 .def_62))).def_64)))))))))))))))))))))))))